N = 160;
M = 376;
Edge_Start = [1, 1, 2, 3, 3, 5, 6, 7, 8, 9, 9, 10, 11, 12, 13, 13, 14, 15, 16, 17, 18, 19, 19, 20, 21, 21, 22, 23, 23, 24, 25, 25, 27, 27, 28, 29, 29, 30, 31, 31, 32, 33, 33, 35, 36, 36, 37, 38, 39, 40, 41, 42, 42, 43, 44, 44, 46, 47, 49, 50, 50, 51, 52, 52, 55, 56, 57, 58, 59, 59, 60, 61, 62, 63, 63, 65, 65, 66, 67, 67, 68, 69, 69, 70, 71, 72, 72, 73, 74, 74, 75, 76, 76, 77, 78, 78, 79, 80, 80, 82, 82, 83, 84, 84, 85, 86, 87, 90, 91, 91, 93, 93, 94, 95, 96, 97, 97, 98, 99, 100, 101, 101, 102, 103, 103, 104, 105, 105, 107, 108, 108, 110, 111, 112, 112, 113, 114, 114, 115, 116, 118, 118, 119, 120, 120, 122, 122, 123, 124, 124, 126, 127, 128, 129, 130, 131, 131, 132, 133, 133, 134, 135, 135, 136, 137, 137, 138, 139, 139, 140, 141, 141, 142, 143, 144, 145, 146, 147, 148, 149, 150, 151, 152, 153, 154, 156, 158, 159, 2, 18, 3, 4, 20, 22, 7, 8, 9, 10, 26, 11, 12, 13, 14, 30, 15, 16, 17, 34, 19, 20, 37, 21, 22, 39, 23, 24, 41, 25, 26, 43, 28, 45, 29, 30, 47, 31, 32, 49, 33, 34, 51, 53, 37, 54, 38, 39, 40, 58, 42, 43, 60, 44, 45, 62, 64, 48, 50, 51, 68, 52, 53, 70, 56, 57, 75, 59, 60, 77, 61, 62, 63, 64, 81, 66, 83, 67, 68, 85, 69, 70, 87, 71, 89, 73, 90, 74, 75, 92, 76, 77, 94, 78, 79, 96, 80, 81, 98, 83, 100, 84, 85, 102, 86, 87, 88, 91, 92, 109, 94, 111, 95, 96, 97, 98, 115, 99, 100, 101, 102, 119, 103, 104, 121, 105, 106, 123, 125, 109, 126, 128, 112, 113, 130, 114, 115, 132, 116, 117, 119, 136, 120, 121, 138, 123, 140, 124, 125, 142, 127, 144, 129, 146, 131, 132, 148, 133, 134, 150, 135, 136, 152, 137, 138, 154, 139, 140, 156, 141, 142, 158, 143, 160, 145, 146, 147, 148, 149, 150, 151, 152, 153, 154, 155, 157, 159, 160];
Edge_End = [2, 18, 3, 4, 20, 22, 7, 8, 9, 10, 26, 11, 12, 13, 14, 30, 15, 16, 17, 34, 19, 20, 37, 21, 22, 39, 23, 24, 41, 25, 26, 43, 28, 45, 29, 30, 47, 31, 32, 49, 33, 34, 51, 53, 37, 54, 38, 39, 40, 58, 42, 43, 60, 44, 45, 62, 64, 48, 50, 51, 68, 52, 53, 70, 56, 57, 75, 59, 60, 77, 61, 62, 63, 64, 81, 66, 83, 67, 68, 85, 69, 70, 87, 71, 89, 73, 90, 74, 75, 92, 76, 77, 94, 78, 79, 96, 80, 81, 98, 83, 100, 84, 85, 102, 86, 87, 88, 91, 92, 109, 94, 111, 95, 96, 97, 98, 115, 99, 100, 101, 102, 119, 103, 104, 121, 105, 106, 123, 125, 109, 126, 128, 112, 113, 130, 114, 115, 132, 116, 117, 119, 136, 120, 121, 138, 123, 140, 124, 125, 142, 127, 144, 129, 146, 131, 132, 148, 133, 134, 150, 135, 136, 152, 137, 138, 154, 139, 140, 156, 141, 142, 158, 143, 160, 145, 146, 147, 148, 149, 150, 151, 152, 153, 154, 155, 157, 159, 160, 1, 1, 2, 3, 3, 5, 6, 7, 8, 9, 9, 10, 11, 12, 13, 13, 14, 15, 16, 17, 18, 19, 19, 20, 21, 21, 22, 23, 23, 24, 25, 25, 27, 27, 28, 29, 29, 30, 31, 31, 32, 33, 33, 35, 36, 36, 37, 38, 39, 40, 41, 42, 42, 43, 44, 44, 46, 47, 49, 50, 50, 51, 52, 52, 55, 56, 57, 58, 59, 59, 60, 61, 62, 63, 63, 65, 65, 66, 67, 67, 68, 69, 69, 70, 71, 72, 72, 73, 74, 74, 75, 76, 76, 77, 78, 78, 79, 80, 80, 82, 82, 83, 84, 84, 85, 86, 87, 90, 91, 91, 93, 93, 94, 95, 96, 97, 97, 98, 99, 100, 101, 101, 102, 103, 103, 104, 105, 105, 107, 108, 108, 110, 111, 112, 112, 113, 114, 114, 115, 116, 118, 118, 119, 120, 120, 122, 122, 123, 124, 124, 126, 127, 128, 129, 130, 131, 131, 132, 133, 133, 134, 135, 135, 136, 137, 137, 138, 139, 139, 140, 141, 141, 142, 143, 144, 145, 146, 147, 148, 149, 150, 151, 152, 153, 154, 156, 158, 159];
L = [1, 1, 1, 1, 1, 1, 1, 1, 1, 1, 1, 1, 1, 1, 1, 1, 1, 1, 1, 1, 1, 1, 1, 1, 1, 1, 1, 1, 1, 1, 1, 1, 1, 1, 1, 1, 1, 1, 1, 1, 1, 1, 1, 1, 1, 1, 1, 1, 1, 1, 1, 1, 1, 1, 1, 1, 1, 1, 1, 1, 1, 1, 1, 1, 1, 1, 1, 1, 1, 1, 1, 1, 1, 1, 1, 1, 1, 1, 1, 1, 1, 1, 1, 1, 1, 1, 1, 1, 1, 1, 1, 1, 1, 1, 1, 1, 1, 1, 1, 1, 1, 1, 1, 1, 1, 1, 1, 1, 1, 1, 1, 1, 1, 1, 1, 1, 1, 1, 1, 1, 1, 1, 1, 1, 1, 1, 1, 1, 1, 1, 1, 1, 1, 1, 1, 1, 1, 1, 1, 1, 1, 1, 1, 1, 1, 1, 1, 1, 1, 1, 1, 1, 1, 1, 1, 1, 1, 1, 1, 1, 1, 1, 1, 1, 1, 1, 1, 1, 1, 1, 1, 1, 1, 1, 1, 1, 1, 1, 1, 1, 1, 1, 1, 1, 1, 1, 1, 1, 1, 1, 1, 1, 1, 1, 1, 1, 1, 1, 1, 1, 1, 1, 1, 1, 1, 1, 1, 1, 1, 1, 1, 1, 1, 1, 1, 1, 1, 1, 1, 1, 1, 1, 1, 1, 1, 1, 1, 1, 1, 1, 1, 1, 1, 1, 1, 1, 1, 1, 1, 1, 1, 1, 1, 1, 1, 1, 1, 1, 1, 1, 1, 1, 1, 1, 1, 1, 1, 1, 1, 1, 1, 1, 1, 1, 1, 1, 1, 1, 1, 1, 1, 1, 1, 1, 1, 1, 1, 1, 1, 1, 1, 1, 1, 1, 1, 1, 1, 1, 1, 1, 1, 1, 1, 1, 1, 1, 1, 1, 1, 1, 1, 1, 1, 1, 1, 1, 1, 1, 1, 1, 1, 1, 1, 1, 1, 1, 1, 1, 1, 1, 1, 1, 1, 1, 1, 1, 1, 1, 1, 1, 1, 1, 1, 1, 1, 1, 1, 1, 1, 1, 1, 1, 1, 1, 1, 1, 1, 1, 1, 1, 1, 1, 1, 1, 1, 1, 1, 1, 1, 1, 1, 1, 1, 1, 1, 1, 1, 1, 1, 1, 1, 1, 1, 1, 1, 1];
T = [1, 1, 1, 1, 1, 1, 1, 1, 1, 1, 1, 1, 1, 1, 1, 1, 1, 1, 1, 1, 1, 1, 1, 1, 1, 1, 1, 1, 1, 1, 1, 1, 1, 1, 1, 1, 1, 1, 1, 1, 1, 1, 1, 1, 1, 1, 1, 1, 1, 1, 1, 1, 1, 1, 1, 1, 1, 1, 1, 1, 1, 1, 1, 1, 1, 1, 1, 1, 1, 1, 1, 1, 1, 1, 1, 1, 1, 1, 1, 1, 1, 1, 1, 1, 1, 1, 1, 1, 1, 1, 1, 1, 1, 1, 1, 1, 1, 1, 1, 1, 1, 1, 1, 1, 1, 1, 1, 1, 1, 1, 1, 1, 1, 1, 1, 1, 1, 1, 1, 1, 1, 1, 1, 1, 1, 1, 1, 1, 1, 1, 1, 1, 1, 1, 1, 1, 1, 1, 1, 1, 1, 1, 1, 1, 1, 1, 1, 1, 1, 1, 1, 1, 1, 1, 1, 1, 1, 1, 1, 1, 1, 1, 1, 1, 1, 1, 1, 1, 1, 1, 1, 1, 1, 1, 1, 1, 1, 1, 1, 1, 1, 1, 1, 1, 1, 1, 1, 1, 1, 1, 1, 1, 1, 1, 1, 1, 1, 1, 1, 1, 1, 1, 1, 1, 1, 1, 1, 1, 1, 1, 1, 1, 1, 1, 1, 1, 1, 1, 1, 1, 1, 1, 1, 1, 1, 1, 1, 1, 1, 1, 1, 1, 1, 1, 1, 1, 1, 1, 1, 1, 1, 1, 1, 1, 1, 1, 1, 1, 1, 1, 1, 1, 1, 1, 1, 1, 1, 1, 1, 1, 1, 1, 1, 1, 1, 1, 1, 1, 1, 1, 1, 1, 1, 1, 1, 1, 1, 1, 1, 1, 1, 1, 1, 1, 1, 1, 1, 1, 1, 1, 1, 1, 1, 1, 1, 1, 1, 1, 1, 1, 1, 1, 1, 1, 1, 1, 1, 1, 1, 1, 1, 1, 1, 1, 1, 1, 1, 1, 1, 1, 1, 1, 1, 1, 1, 1, 1, 1, 1, 1, 1, 1, 1, 1, 1, 1, 1, 1, 1, 1, 1, 1, 1, 1, 1, 1, 1, 1, 1, 1, 1, 1, 1, 1, 1, 1, 1, 1, 1, 1, 1, 1, 1, 1, 1, 1, 1, 1, 1, 1, 1, 1, 1, 1, 1, 1];
Lower_Bound = [0, 1, 2, 3, 6, 13, 12, 11, 10, 11, 12, 13, 14, 15, 16, 17, 18, 1, 2, 3, 4, 5, 6, 7, 8, 9, 12, 13, 14, 15, 16, 17, 18, 19, 22, 4, 3, 4, 5, 6, 7, 8, 9, 10, 11, 14, 15, 16, 17, 18, 19, 20, 21, 5, 14, 13, 12, 7, 8, 9, 10, 11, 12, 13, 18, 19, 20, 19, 20, 21, 22, 14, 13, 12, 11, 10, 9, 10, 11, 12, 13, 16, 17, 18, 19, 20, 21, 22, 23, 15, 14, 13, 12, 11, 12, 11, 12, 13, 14, 15, 16, 17, 18, 19, 20, 21, 24, 16, 15, 22, 13, 14, 15, 14, 13, 14, 15, 18, 17, 18, 19, 22, 21, 22, 23, 17, 18, 21, 20, 15, 16, 15, 16, 17, 18, 19, 20, 19, 20, 21, 22, 23, 24, 19, 20, 19, 18, 17, 18, 17, 18, 19, 20, 21, 22, 21, 22, 23, 24, 25];
Upper_Bound = [0, 1, 2, 3, 6, 13, 12, 11, 10, 11, 12, 13, 14, 15, 16, 17, 18, 1, 2, 3, 4, 5, 6, 7, 8, 9, 12, 13, 14, 15, 16, 17, 18, 19, 22, 4, 3, 4, 5, 6, 7, 8, 9, 10, 11, 14, 15, 16, 17, 18, 19, 20, 21, 5, 14, 13, 12, 7, 8, 9, 10, 11, 12, 13, 18, 19, 20, 19, 20, 21, 22, 14, 13, 12, 11, 10, 9, 10, 11, 12, 13, 16, 17, 18, 19, 20, 21, 22, 23, 15, 14, 13, 12, 11, 12, 11, 12, 13, 14, 15, 16, 17, 18, 19, 20, 21, 24, 16, 15, 22, 13, 14, 15, 14, 13, 14, 15, 18, 17, 18, 19, 22, 21, 22, 23, 17, 18, 21, 20, 15, 16, 15, 16, 17, 18, 19, 20, 19, 20, 21, 22, 23, 24, 19, 20, 19, 18, 17, 18, 17, 18, 19, 20, 21, 22, 21, 22, 23, 24, 25];
Start = 1;
End = 160;
Time = 25;
